interdiction/MCDM/NO_CORR/GEN_FROM_60/16_ITEMS_1000_GEN/K5016W13.KNP.mps
NAME          BLANK   
ROWS
 N  OBJROW
 L  R0000000
COLUMNS
    C0000000  OBJROW     -840.         R0000000  288.        
    C0000001  OBJROW     -1000.        R0000000  870.        
    C0000002  OBJROW     -11.          R0000000  436.        
    C0000003  OBJROW     -489.         R0000000  708.        
    C0000004  OBJROW     -857.         R0000000  375.        
    C0000005  OBJROW     -910.         R0000000  134.        
    C0000006  OBJROW     -621.         R0000000  707.        
    C0000007  OBJROW     -253.         R0000000  576.        
    C0000008  OBJROW     -869.         R0000000  480.        
    C0000009  OBJROW     -227.         R0000000  618.        
    C0000010  OBJROW     -955.         R0000000  18.         
    C0000011  OBJROW     -12.          R0000000  646.        
    C0000012  OBJROW     -776.         R0000000  330.        
    C0000013  OBJROW     -697.         R0000000  51.         
    C0000014  OBJROW     -176.         R0000000  232.        
    C0000015  OBJROW     -189.         R0000000  189.        
RHS
    RHS       R0000000  14228.      
BOUNDS
 BV BOUND     C0000000  1.          
 BV BOUND     C0000001  1.          
 BV BOUND     C0000002  1.          
 BV BOUND     C0000003  1.          
 BV BOUND     C0000004  1.          
 BV BOUND     C0000005  1.          
 BV BOUND     C0000006  1.          
 BV BOUND     C0000007  1.          
 BV BOUND     C0000008  1.          
 BV BOUND     C0000009  1.          
 BV BOUND     C0000010  1.          
 BV BOUND     C0000011  1.          
 BV BOUND     C0000012  1.          
 BV BOUND     C0000013  1.          
 BV BOUND     C0000014  1.          
 BV BOUND     C0000015  1.          
ENDATA
