data/MCDM/NO_CORR/GEN_FROM_60/16_ITEMS_1000_GEN/K5016W13.KNP.txt
N 16
M 17
LC 16
LC 17
LC 18
LC 19
LC 20
LC 21
LC 22
LC 23
LC 24
LC 25
LC 26
LC 27
LC 28
LC 29
LC 30
LC 31
LR 1
LR 2
LR 3
LR 4
LR 5
LR 6
LR 7
LR 8
LR 9
LR 10
LR 11
LR 12
LR 13
LR 14
LR 15
LR 16
LR 17
LO -840
LO -1000
LO -11
LO -489
LO -857
LO -910
LO -621
LO -253
LO -869
LO -227
LO -955
LO -12
LO -776
LO -697
LO -176
LO -189
OS 1
IC 280
IC 281
IC 16
IC 806
IC 828
IC 266
IC 87
IC 195
IC 713
IC 575
IC 703
IC 663
IC 234
IC 634
IC 808
IC 291
IB 3690
